w = 38;
n = 19;
measures = [|24, 38,
|4, 16,
|4, 15,
|4, 12,
|4, 11,
|3, 13,
|3, 11,
|4, 8,
|3, 10,
|3, 9,
|3, 8,
|4, 6,
|3, 7,
|4, 5,
|3, 6,
|3, 5,
|3, 4,
|4, 3,
|3, 3,
|];
initial_x = [0, 24, 28, 32, 0, 4, 7, 10, 14, 17, 20, 23, 27, 30, 34, 0, 3, 6, 10];
initial_y = [0, 0, 0, 0, 38, 38, 38, 38, 38, 38, 38, 38, 38, 38, 38, 51, 51, 51, 51];